Minimize
  - 19 y_0 - 5 y_1 - 20 y_2 - 6 y_3 - 17 y_4 - 6 y_5 - 17 y_6 - 10 y_7
   - 18 y_8 - 11 y_9 - 9 y_10 - 17 y_11 - 22 y_12 - 18 y_13 - 8 y_14
   - 11 y_15 - 11 y_16 - 7 y_17 - 8 y_18 - 26 y_19 - 11 y_20 - 15 y_21
   - 16 y_22 - 19 y_23 - 17 y_24 - 17 y_25 - 7 y_26 - 12 y_27 - 14 y_28
   - 15 y_29 - 20 y_30 - 10 y_31 - 17 y_32 - 20 y_33 - 5 y_34 - 22 y_35
   - 19 y_36 - 25 y_37 - 10 y_38 - 18 y_39 - 24 y_40 - 19 y_41 - 14 y_42
   - 8 y_43 - 16 y_44 - 21 y_45 - 14 y_46 - 7 y_47 - 21 y_48 - 21 y_49
   - 17 y_50 - 9 y_51 - 18 y_52 - 8 y_53 - 15 y_54 - 17 y_55 - 14 y_56
   - 12 y_57 - 25 y_58 - 25 y_59 - 7 y_60 - 14 y_61 - 20 y_62 - 16 y_64
   - 5 y_65 - 19 y_66 - 16 y_67 - 13 y_68 - 4 y_69 - 10 y_70 - 4 y_71
   - 11 y_72 - 5 y_73 - 12 y_74 - 13 y_75 - 7 y_76 - 13 y_77 - 18 y_78
   - 11 y_79 - 11 y_80 - 17 y_81 - 5 y_82 - 11 y_83 - 5 y_84 - 10 y_85
   - 13 y_86 - 12 y_87 - 24 y_88 - 15 y_89 - 12 y_90 - 10 y_91 - 12 y_92
   - 18 y_93 - 21 y_94 - 14 y_95 - 9 y_96 - 15 y_97 - 19 y_98 - 9 y_99
   + 1380 Constant
Subject To
 c_0: y_61 = 1
 c_1_0: y_0 + y_24 >= 1
 c_1_1: y_1 + y_5 + y_34 + y_84 >= 1
 c_1_2: y_2 + y_41 + y_98 >= 1
 c_1_3: y_3 + y_18 + y_47 + y_60 + y_65 + y_73 + y_82 >= 1
 c_1_4: y_4 + y_13 + y_32 >= 1
 c_1_5: y_1 + y_5 + y_17 + y_34 + y_53 + y_84 >= 1
 c_1_6: y_6 + y_25 + y_66 >= 1
 c_1_7: y_7 + y_10 + y_80 + y_87 + y_92 >= 1
 c_1_8: y_8 + y_39 + y_67 >= 1
 c_1_9: y_9 + y_16 >= 1
 c_1_10: y_7 + y_10 + y_26 + y_43 + y_76 + y_80 + y_99 >= 1
 c_1_11: y_11 + y_93 >= 1
 c_1_12: y_12 + y_35 >= 1
 c_1_13: y_4 + y_13 + y_32 + y_52 >= 1
 c_1_14: y_14 + y_51 + y_96 >= 1
 c_1_15: y_15 + y_20 + y_38 + y_72 + y_77 + y_90 + y_96 >= 1
 c_1_16: y_9 + y_16 >= 1
 c_1_17: y_5 + y_17 + y_26 + y_34 + y_43 + y_53 + y_76 + y_84 >= 1
 c_1_18: y_3 + y_18 + y_47 + y_60 >= 1
 c_1_19: y_19 + y_37 + y_40 + y_58 + y_59 + y_88 >= 1
 c_1_20: y_15 + y_20 + y_38 + y_68 + y_77 + y_90 >= 1
 c_1_21: y_21 + y_61 >= 1
 c_1_22: y_22 + y_39 + y_44 + y_55 + y_97 >= 1
 c_1_23: y_23 + y_50 >= 1
 c_1_24: y_0 + y_24 + y_64 >= 1
 c_1_25: y_6 + y_25 + y_66 >= 1
 c_1_26: y_10 + y_17 + y_26 + y_43 + y_76 + y_82 + y_99 >= 1
 c_1_27: y_27 + y_57 >= 1
 c_1_28: y_28 >= 1
 c_1_29: y_29 + y_42 + y_46 + y_67 + y_75 >= 1
 c_1_30: y_30 + y_41 >= 1
 c_1_31: y_31 + y_51 + y_72 + y_85 + y_91 + y_96 >= 1
 c_1_32: y_4 + y_13 + y_32 + y_52 >= 1
 c_1_33: y_33 + y_45 >= 1
 c_1_34: y_1 + y_5 + y_17 + y_34 + y_84 >= 1
 c_1_35: y_12 + y_35 + y_40 >= 1
 c_1_36: y_36 + y_93 >= 1
 c_1_37: y_19 + y_37 + y_40 + y_58 + y_59 >= 1
 c_1_38: y_15 + y_20 + y_38 + y_51 + y_90 + y_96 >= 1
 c_1_39: y_8 + y_22 + y_39 + y_44 + y_55 >= 1
 c_1_40: y_19 + y_35 + y_37 + y_40 + y_58 + y_59 + y_88 >= 1
 c_1_41: y_2 + y_30 + y_41 + y_98 >= 1
 c_1_42: y_29 + y_42 + y_46 + y_75 + y_87 + y_92 >= 1
 c_1_43: y_10 + y_17 + y_26 + y_43 + y_53 + y_76 + y_99 >= 1
 c_1_44: y_22 + y_39 + y_44 + y_54 + y_55 + y_97 >= 1
 c_1_45: y_33 + y_45 >= 1
 c_1_46: y_29 + y_42 + y_46 + y_75 + y_87 + y_92 >= 1
 c_1_47: y_3 + y_18 + y_47 + y_60 + y_65 + y_73 + y_82 >= 1
 c_1_48: y_48 + y_49 + y_94 >= 1
 c_1_49: y_48 + y_49 + y_94 >= 1
 c_1_50: y_23 + y_50 + y_98 >= 1
 c_1_51: y_14 + y_31 + y_38 + y_51 + y_85 + y_96 >= 1
 c_1_52: y_13 + y_32 + y_52 >= 1
 c_1_53: y_5 + y_17 + y_43 + y_53 >= 1
 c_1_54: y_44 + y_54 + y_97 >= 1
 c_1_55: y_22 + y_39 + y_44 + y_55 >= 1
 c_1_56: y_56 + y_74 + y_95 >= 1
 c_1_57: y_27 + y_57 >= 1
 c_1_58: y_19 + y_37 + y_40 + y_58 + y_59 + y_88 >= 1
 c_1_59: y_19 + y_37 + y_40 + y_58 + y_59 + y_88 >= 1
 c_1_60: y_3 + y_18 + y_47 + y_60 >= 1
 c_1_61: y_21 + y_61 >= 1
 c_1_62: y_62 >= 1
 c_1_63: y_63 >= 1
 c_1_64: y_24 + y_64 + y_89 >= 1
 c_1_65: y_3 + y_47 + y_65 + y_69 + y_71 + y_73 + y_82 >= 1
 c_1_66: y_6 + y_25 + y_66 + y_94 >= 1
 c_1_67: y_8 + y_29 + y_67 >= 1
 c_1_68: y_20 + y_68 + y_77 + y_86 + y_90 >= 1
 c_1_69: y_65 + y_69 + y_71 + y_73 >= 1
 c_1_70: y_70 + y_79 + y_83 >= 1
 c_1_71: y_65 + y_69 + y_71 + y_73 >= 1
 c_1_72: y_15 + y_31 + y_72 + y_85 + y_91 >= 1
 c_1_73: y_3 + y_47 + y_65 + y_69 + y_71 + y_73 + y_82 >= 1
 c_1_74: y_56 + y_74 + y_79 + y_83 + y_90 >= 1
 c_1_75: y_29 + y_42 + y_46 + y_75 + y_92 >= 1
 c_1_76: y_10 + y_17 + y_26 + y_43 + y_76 + y_82 >= 1
 c_1_77: y_15 + y_20 + y_68 + y_77 + y_90 >= 1
 c_1_78: y_78 + y_81 >= 1
 c_1_79: y_70 + y_74 + y_79 + y_83 + y_90 >= 1
 c_1_80: y_7 + y_10 + y_80 + y_87 + y_92 >= 1
 c_1_81: y_78 + y_81 >= 1
 c_1_82: y_3 + y_26 + y_47 + y_65 + y_73 + y_76 + y_82 >= 1
 c_1_83: y_70 + y_74 + y_79 + y_83 >= 1
 c_1_84: y_1 + y_5 + y_17 + y_34 + y_84 >= 1
 c_1_85: y_31 + y_51 + y_72 + y_85 + y_91 >= 1
 c_1_86: y_68 + y_86 >= 1
 c_1_87: y_7 + y_42 + y_46 + y_80 + y_87 + y_92 >= 1
 c_1_88: y_19 + y_40 + y_58 + y_59 + y_88 >= 1
 c_1_89: y_64 + y_89 + y_95 >= 1
 c_1_90: y_15 + y_20 + y_38 + y_68 + y_74 + y_77 + y_79 + y_90 >= 1
 c_1_91: y_31 + y_72 + y_85 + y_91 >= 1
 c_1_92: y_7 + y_42 + y_46 + y_75 + y_80 + y_87 + y_92 >= 1
 c_1_93: y_11 + y_36 + y_93 >= 1
 c_1_94: y_48 + y_49 + y_66 + y_94 >= 1
 c_1_95: y_56 + y_89 + y_95 >= 1
 c_1_96: y_14 + y_15 + y_31 + y_38 + y_51 + y_96 >= 1
 c_1_97: y_22 + y_44 + y_54 + y_97 >= 1
 c_1_98: y_2 + y_41 + y_50 + y_98 >= 1
 c_1_99: y_10 + y_26 + y_43 + y_99 >= 1
Bounds
 Constant = 1
Binaries
 y_0 y_1 y_2 y_3 y_4 y_5 y_6 y_7 y_8 y_9 y_10 y_11 y_12 y_13 y_14 y_15 y_16
 y_17 y_18 y_19 y_20 y_21 y_22 y_23 y_24 y_25 y_26 y_27 y_28 y_29 y_30 y_31
 y_32 y_33 y_34 y_35 y_36 y_37 y_38 y_39 y_40 y_41 y_42 y_43 y_44 y_45 y_46
 y_47 y_48 y_49 y_50 y_51 y_52 y_53 y_54 y_55 y_56 y_57 y_58 y_59 y_60 y_61
 y_62 y_63 y_64 y_65 y_66 y_67 y_68 y_69 y_70 y_71 y_72 y_73 y_74 y_75 y_76
 y_77 y_78 y_79 y_80 y_81 y_82 y_83 y_84 y_85 y_86 y_87 y_88 y_89 y_90 y_91
 y_92 y_93 y_94 y_95 y_96 y_97 y_98 y_99
End
